0 0 0 0
0 1 0 0
0 2 1 0
0 3 2 0
0 4 0 8
0 5 0 3
0 6 2 26
0 7 0 9
0 8 0 14
0 9 0 8
0 10 1 14
0 11 0 12
0 12 0 10
0 13 2 16
0 14 0 9
0 15 0 14
0 16 0 13
0 17 0 16
0 18 1 17
0 19 2 6
0 20 0 23
0 21 0 23
0 22 0 15
0 23 2 17
0 24 1 22
0 25 0 22
0 26 0 26
0 27 0 26
0 28 0 30
0 29 0 31
0 30 1 31
0 31 0 34
